 NOTE: Siesta V5 introduces some new defaults for basis-set generation
 NOTE: which might lead to slightly different numerical results.
 NOTE: Please see the manual for full details and compatibility measures.

reinit: Reading from file band_structure.fdf

reinit: -----------------------------------------------------------------------
reinit: System Name:
reinit: -----------------------------------------------------------------------
reinit: System Label: nameofyoursystem
reinit: -----------------------------------------------------------------------

initatom: Reading input for the pseudopotentials and atomic orbitals ----------
Species number:   1 Atomic number:   14 Label: Si
Species number:   2 Atomic number:    1 Label: H

Ground state valence configuration (from tables):   3s02  3p02  3d00  4f00
Ground state valence configuration (from tables):   1s01  2p00  3d00  4f00

---- Processing specs for species: Si
Reading pseudopotential information in PSML from:
  Si.psml
PSML file version: 1.1
GGA--PBE XC_GGA_X_PBE--XC_GGA_C_PBE pb
PSML uuid: 78f1be70-be41-11e7-6330-179677bb7285

---- Processing specs for species: H
Reading pseudopotential information in PSML from:
  H.psml
PSML file version: 1.1
GGA--PBE XC_GGA_X_PBE--XC_GGA_C_PBE pb
PSML uuid: f95fa9b0-be40-11e7-634a-9594ffff953f

---- Pseudopotential check for Si

Pseudized shells:
3s( 2.00) rc: 1.60
3p( 2.00) rc: 1.72
3d( 0.00) rc: 1.92
Valence configuration for ps generation: 3s:3p: Total charge:   4.000000

---- Pseudopotential check for H

Pseudized shells:
1s( 1.00) rc: 1.01
2p( 0.00) rc: 0.71
Valence configuration for ps generation: 1s: Total charge:   1.000000
For Si, standard SIESTA heuristics set lmxkb to 3
 (one more than the basis l, including polarization orbitals).
Use PS.lmax or PS.KBprojectors blocks to override.
For H, standard SIESTA heuristics set lmxkb to 2
 (one more than the basis l, including polarization orbitals).
Use PS.lmax or PS.KBprojectors blocks to override.
Si pseudopotential only contains V_ls up to l=2 -- lmxkb reset.
H pseudopotential only contains V_ls up to l=1 -- lmxkb reset.

<basis_specs>
Si                   Z=  14    Mass=  28.090        Charge= 0.17977+309
Lmxo=2 Lmxkb= 2    BasisType=split      Semic=F
L=0  Nsemic=0  Cnfigmx=3
          i=1  nzeta=2  polorb=0  (3s)
            splnorm:   0.15000
               vcte:    40.000
               rinn:  -0.90000
               qcoe:    0.0000
               qyuk:    0.0000
               qwid:   0.10000E-01
                rcs:    0.0000      0.0000
            lambdas:    1.0000      1.0000
L=1  Nsemic=0  Cnfigmx=3
          i=1  nzeta=2  polorb=1  (3p)  (to be polarized perturbatively)
            splnorm:   0.15000
               vcte:    40.000
               rinn:  -0.90000
               qcoe:    0.0000
               qyuk:    0.0000
               qwid:   0.10000E-01
                rcs:    0.0000      0.0000
            lambdas:    1.0000      1.0000
L=2  Nsemic=0  Cnfigmx=3
          i=1  nzeta=0  polorb=0  (3d)  (perturbative polarization orbital) (from 3p)
L=0  Nkbl=1  erefs: 0.17977+309
L=1  Nkbl=1  erefs: 0.17977+309
L=2  Nkbl=1  erefs: 0.17977+309
</basis_specs>

Using PAO.SplitTailNorm
atom: Called for Si                    (Z =  14)
Maximum radius (at nrval) set to   50.00000 8518

read_vps: Pseudopotential generation method:
read_vps: ONCVPSP-3.Hamann's oncvpsp
Valence charge in pseudo generation:    4.00000

read_vps: Pseudopotential includes a core correction:
read_vps: Pseudo-core for xc-correction

xc_check: Exchange-correlation functional:
xc_check: GGA Perdew, Burke & Ernzerhof 1996
Got Vlocal (oncv-fit) from psml data
Choosing vlocal chloc cutoff:  4.644478
qtot up to nchloc:    4.00055554
atom: Maximum radius for chlocal:    4.64448
atom: Maximum radius for r*vlocal+2*Zval:    4.64448
Reading KB projs from Si psml data
Using scalar-relativistic projectors in PSML file

PSML: Kleinman-Bylander projectors:
   l= 0   rc=  1.623671   Ekb= 10.337930
   l= 0   rc=  1.623671   Ekb=  1.659765
   l= 1   rc=  1.743879   Ekb=  5.142565
   l= 1   rc=  1.743879   Ekb=  1.156614
   l= 2   rc=  1.941952   Ekb= -4.854621
   l= 2   rc=  1.941952   Ekb= -0.976194

PSML: Total number of  Kleinman-Bylander projectors:  18
atom: -------------------------------------------------------------------------

atom: SANKEY-TYPE ORBITALS:
atom: Selected multiple-zeta basis: split

SPLIT: Orbitals with angular momentum L= 0

SPLIT: Basis orbitals for state 3s

SPLIT: PAO cut-off radius determined from an
SPLIT: energy shift=  0.022050 Ry
Split based on tail norm

   izeta = 1
                 lambda =    1.000000
                     rc =    4.897820
                 energy =   -0.769877
                kinetic =    0.629341
    potential(screened) =   -1.399219
       potential(ionic) =   -3.834541

   izeta = 2
                 rmatch =    3.647683
              splitnorm =    0.150000
                 energy =   -0.333761
                kinetic =    1.440104
    potential(screened) =   -1.773865
       potential(ionic) =   -4.344738

[...]

SPLIT: Basis orbitals for state 3p

[...]

POLgen: Perturbative polarization orbital with L=  2

POLgen: Polarization orbital for state 3p
Split based on tail norm

   izeta = 1
                     rc =    6.081107
                 energy =    0.393578
                kinetic =    1.684997
    potential(screened) =   -1.291419
       potential(ionic) =   -3.466595
atom: Total number of Sankey-type orbitals: 13

atm_pop: Valence configuration (for local Pseudopot. screening):
 3s( 2.00)
 3p( 2.00)
 3d( 0.00)
Vna: chval, zval:    4.00000   4.00000

Vna:  Cut-off radius for the neutral-atom potential:   6.081107
comcore: Pseudo-core radius Rcore=  2.875880

atom: _________________________________________________________________________

<basis_specs>
H                    Z=   1    Mass=  1.0080        Charge= 0.17977+309
Lmxo=1 Lmxkb= 1    BasisType=split      Semic=F
L=0  Nsemic=0  Cnfigmx=1
          i=1  nzeta=2  polorb=1  (1s)  (to be polarized perturbatively)
            splnorm:   0.15000
               vcte:    40.000
               rinn:  -0.90000
               qcoe:    0.0000
               qyuk:    0.0000
               qwid:   0.10000E-01
                rcs:    0.0000      0.0000
            lambdas:    1.0000      1.0000
L=1  Nsemic=0  Cnfigmx=2
          i=1  nzeta=0  polorb=0  (2p)  (perturbative polarization orbital) (from 1s)
L=0  Nkbl=1  erefs: 0.17977+309
L=1  Nkbl=1  erefs: 0.17977+309
</basis_specs>

Using PAO.SplitTailNorm
atom: Called for H                     (Z =   1)
Maximum radius (at nrval) set to   50.00000 8518

read_vps: Pseudopotential generation method:
read_vps: ONCVPSP-3.Hamann's oncvpsp
Valence charge in pseudo generation:    1.00000

xc_check: Exchange-correlation functional:
xc_check: GGA Perdew, Burke & Ernzerhof 1996
Got Vlocal (oncv-fit) from psml data
Choosing vlocal chloc cutoff:  1.926399
qtot up to nchloc:    0.99999831
atom: Maximum radius for chlocal:    1.92640
atom: Maximum radius for r*vlocal+2*Zval:    1.92640
Reading KB projs from H psml data
Using scalar-relativistic projectors in PSML file

PSML: Kleinman-Bylander projectors:
   l= 0   rc=  1.022342   Ekb= -3.402247
   l= 0   rc=  1.022342   Ekb= -1.068968
   l= 1   rc=  0.714575   Ekb= -1.006642

PSML: Total number of  Kleinman-Bylander projectors:   5
atom: -------------------------------------------------------------------------

atom: SANKEY-TYPE ORBITALS:
atom: Selected multiple-zeta basis: split

SPLIT: Orbitals with angular momentum L= 0

SPLIT: Basis orbitals for state 1s

SPLIT: PAO cut-off radius determined from an
SPLIT: energy shift=  0.022050 Ry
Split based on tail norm

   izeta = 1
                 lambda =    1.000000
                     rc =    4.612011
                 energy =   -0.453186
                kinetic =    1.021401
    potential(screened) =   -1.474588
       potential(ionic) =   -2.005546

   izeta = 2
                 rmatch =    3.250335
              splitnorm =    0.150000
                 energy =   -0.230614
                kinetic =    1.936796
    potential(screened) =   -2.167410
       potential(ionic) =   -2.722623

POLgen: Perturbative polarization orbital with L=  1

POLgen: Polarization orbital for state 1s
Split based on tail norm

   izeta = 1
                     rc =    4.612011
                 energy =    0.818341
                kinetic =    1.531928
    potential(screened) =   -0.713588
       potential(ionic) =   -1.217279
atom: Total number of Sankey-type orbitals:  5

atm_pop: Valence configuration (for local Pseudopot. screening):
 1s( 1.00)
 2p( 0.00)
Vna: chval, zval:    1.00000   1.00000

Vna:  Cut-off radius for the neutral-atom potential:   4.612011

atom: _________________________________________________________________________

prinput: Basis input

PAO.BasisType split

%block ChemicalSpeciesLabel
    1   14 Si                      # Species index, atomic number, species label
    2    1 H                       # Species index, atomic number, species label
%endblock ChemicalSpeciesLabel

%block PAO.Basis                 # Define Basis set
# WARNING: This information might be incomplete!
Si                    2                    # Species label, number of l-shells
 n=3   0   2                         # n, l, Nzeta
   4.898      3.648
   1.000      1.000
 n=3   1   2 P   1                   # n, l, Nzeta, Polarization, NzetaPol
   6.081      4.575
   1.000      1.000
H                     1                    # Species label, number of l-shells
 n=1   0   2 P   1                   # n, l, Nzeta, Polarization, NzetaPol
   4.612      3.250
   1.000      1.000
%endblock PAO.Basis

prinput: ----------------------------------------------------------------------

Dumping basis to NetCDF file Si.ion.nc
Dumping basis to NetCDF file H.ion.nc
coor:   Atomic-coordinates input format  =     Cartesian coordinates
coor:                                          (in Angstroms)

siesta: Atomic coordinates (Bohr) and species
siesta:     -0.00000   0.00000  -0.69868  1        1
siesta:      3.63626   2.09939   0.69868  1        2
siesta:     -0.00000   0.00000  -3.54704  2        3
siesta:      3.63626   2.09939   3.54704  2        4
siesta:      7.27251  -0.00001  -0.69868  1        5
siesta:     10.90877   2.09938   0.69868  1        6
siesta:      7.27251  -0.00001  -3.54704  2        7
siesta:     10.90877   2.09938   3.54704  2        8
siesta:     14.54503  -0.00001  -0.69867  1        9
siesta:     18.18129   2.09937   0.69868  1       10
siesta:     14.54503  -0.00002  -3.54704  2       11
siesta:     18.18129   2.09937   3.54704  2       12
siesta:     21.81754  -0.00002  -0.69867  1       13
siesta:     25.45380   2.09937   0.69868  1       14
siesta:     21.81754  -0.00002  -3.54704  2       15
siesta:     25.45380   2.09937   3.54704  2       16
siesta:     29.09006  -0.00003  -0.69867  1       17
siesta:     32.72632   2.09936   0.69868  1       18
siesta:     29.09006  -0.00003  -3.54703  2       19
siesta:     32.72632   2.09936   3.54704  2       20
siesta:     36.36257  -0.00004  -0.69867  1       21
[...]
redata: Require DM convergence for SCF              =   T
redata: DM tolerance for SCF                        =     0.000100
redata: Require EDM convergence for SCF             =   F
redata: EDM tolerance for SCF                       =     0.001000 eV
redata: Require H convergence for SCF               =   T
redata: Hamiltonian tolerance for SCF               =     0.001000 eV
redata: Require (free) Energy convergence for SCF   =   F
redata: (free) Energy tolerance for SCF             =     0.000100 eV
redata: Using DFT-D3 dispersion                     =   F
redata: Using Saved Data (generic)                  =   F
redata: Use continuation files for DM               =   T
redata: Neglect nonoverlap interactions             =   F
redata: Method of Calculation                       = Diagonalization
redata: Electronic Temperature                      =   299.9863 K
redata: Fix the spin of the system                  =   F
redata: Max. number of TDED Iter                    =        1
redata: Number of TDED substeps                     =        3
redata: Dynamics option                             = Single-point calculation
mix.SCF: Pulay mixing                            = Pulay
mix.SCF:    Variant                              = stable
mix.SCF:    History steps                        = 2
mix.SCF:    Linear mixing weight                 =     0.250000
mix.SCF:    Mixing weight                        =     0.250000
mix.SCF:    SVD condition                        = 0.1000E-07
redata: Save all siesta data in one NC              =   F
redata: ***********************************************************************

%block SCF.Mixers
  Pulay
%endblock SCF.Mixers

%block SCF.Mixer.Pulay
  # Mixing method
  method pulay
  variant stable

  # Mixing options
  weight 0.2500
  weight.linear 0.2500
  history 2
%endblock SCF.Mixer.Pulay

DM_history_depth set to one: no extrapolation allowed by default for geometry relaxation
Size of DM history Fstack: 1
Total number of electrons:   360.000000
Total ionic charge:   360.000000
k-point displ. along   1 input, could be:     0.00    0.50
k-point displ. along   2 input, could be:     0.00    0.50
 Kpoints in:           60 . Kpoints trimmed:           56

siesta: k-grid: Number of k-points = 56
siesta: k-points from Monkhorst-Pack grid
siesta: k-cutoff (effective) =    10.000 Ang
siesta: k-point supercell and displacements
siesta: k-grid:    10     0     0      0.000
siesta: k-grid:     0    10     0      0.000
siesta: k-grid:     0     0     1      0.000

diag: Algorithm                                     = D&C
diag: Used triangular part                          = Lower
diag: Absolute tolerance                            =  0.100E-15
diag: Orthogonalization factor                      =  0.100E-05
Using current reciprocal lattice vectors for BandLinesScale
Beware any cell changes by the end of the run
Using current reciprocal lattice vectors for BandLinesScale
Beware any cell changes by the end of the run

superc: Internal auxiliary supercell:     3 x     3 x     1  =       9
superc: Number of atoms, orbitals, and projectors:   1296  11664  14904

ts: **************************************************************
ts: Save H and S matrices                           =    T
ts: Save DM and EDM matrices                        =    F
ts: Only save the overlap matrix S                  =    F
ts: **************************************************************

************************ Begin: TS CHECKS AND WARNINGS ************************
************************ End: TS CHECKS AND WARNINGS **************************

                        Single-point calculation

superc: Internal auxiliary supercell:     3 x     3 x     1  =       9
superc: Number of atoms, orbitals, and projectors:   1296  11664  14904

outcell: Unit cell vectors (Ang):
       22.680000    0.000000    0.000000
      -11.340000   19.641456    0.000000
        0.000000    0.000000   20.000000

outcell: Cell vector modules (Ang)   :   22.680000   22.680000   20.000000
outcell: Cell angles (23,13,12) (deg):     90.0000     90.0000    120.0000
outcell: Cell volume (Ang**3)        :   8909.3645
<dSpData1D:S at geom step 0
  <sparsity:sparsity for geom step 0
    nrows_g=1296 nrows=1296 sparsity=.2727 nnzs=458104, refcount: 7>
  <dData1D:(new from dSpData1D) n=458104, refcount: 1>
refcount: 1>
new_DM -- step:     1
Initializing Density Matrix...

Attempting to read DM from file... Failed...
DM filled with atomic data:
<dSpData2D:DM initialized from atoms
  <sparsity:sparsity for geom step 0
    nrows_g=1296 nrows=1296 sparsity=.2727 nnzs=458104, refcount: 8>
  <dData2D:DM n=458104 m=1, refcount: 1>
refcount: 1>
No. of atoms with KB's overlaping orbs in proc 0. Max # of overlaps:     260     145

InitMesh: MESH = 216 x 216 x 216 = 10077696
InitMesh: Mesh cutoff (required, used) =   300.000   322.366 Ry
New grid distribution [1]: sub = 2

stepf: Fermi-Dirac step function

siesta: Program's energy decomposition (eV):
siesta: Ebs     =     -3468.206963
siesta: Eions   =     16191.100025
siesta: Ena     =      5319.578415
siesta: Ekin    =      4221.722361
siesta: Enl     =       983.733895
siesta: Eso     =         0.000000
siesta: Edftu   =         0.000000
siesta: DEna    =        -9.630060
siesta: DUscf   =        47.658062
siesta: DUext   =         0.000000
siesta: Ex      =     -3350.571561
siesta: Ec      =      -400.411902
siesta: Exc     =     -3750.983463
siesta: EbV     =         0.000000
siesta: eta*DQ  =         0.000000
siesta: Emadel  =         0.000000
siesta: Emeta   =         0.000000
siesta: Emolmec =         0.000000
siesta: Ekinion =         0.000000
siesta: Eharris =     -9578.317380
siesta: Etot    =     -9379.020814
siesta: FreeEng =     -9379.020814

SCF Convergence by DM+H criterion
max |DM_out - DM_in|         :     0.0000223823
max |H_out - H_in|      (eV) :     0.0009777125
SCF cycle converged after 13 iterations

Using DM_out to compute the final energy and forces
No. of atoms with KB's overlaping orbs in proc 0. Max # of overlaps:     260     145

siesta: E_KS(eV) =            -9387.5314

siesta: E_KS - E_eggbox =     -9387.5314

siesta: Atomic forces (eV/Ang):
   Tot   -0.002273    0.000918   -0.004902
   Max    5.498494
   Res    1.379378    sqrt( Sum f_i^2 / 3N )
   Max    5.498494    constrained

Stress tensor Voigt[x,y,z,yz,xz,xy] (kbar):       -9.52      -15.60       -3.04        1.84        4.11        3.79
(Free)E + p*V (eV/cell)    -9335.3300
Target enthalpy (eV/cell)    -9387.5314

coxmol: Writing XMOL coordinates into file nameofyoursystem.xyz
Computing bands...

diag: Algorithm                                     = D&C
diag: Used triangular part                          = Lower
diag: Absolute tolerance                            =  0.100E-15
diag: Orthogonalization factor                      =  0.100E-05

siesta: Program's energy decomposition (eV):
siesta: Ebs     =     -3285.984829
siesta: Eions   =     16191.100025
siesta: Ena     =      5319.578415
siesta: Ekin    =      4135.901472
siesta: Enl     =      1030.521101
siesta: Eso     =         0.000000
siesta: Edftu   =         0.000000
siesta: DEna    =        18.503992
siesta: DUscf   =        27.878006
siesta: DUext   =         0.000000
siesta: Ex      =     -3324.748595
siesta: Ec      =      -404.065791
siesta: Exc     =     -3728.814386
siesta: EbV     =         0.000000
siesta: eta*DQ  =         0.000000
siesta: Emadel  =         0.000000
siesta: Emeta   =         0.000000
siesta: Emolmec =         0.000000
siesta: Ekinion =         0.000000
siesta: Eharris =     -9387.531428
siesta: Etot    =     -9387.531425
siesta: FreeEng =     -9387.531425

siesta: Final energy (eV):
siesta:  Band Struct. =   -3285.984829
siesta:       Kinetic =    4135.901472
siesta:       Hartree =   29437.610984
siesta:         Edftu =       0.000000
siesta:       Eso     =       0.000000
siesta:    Ext. field =       0.000000
siesta:         Exch. =   -3324.748595
siesta:         Corr. =    -404.065791
siesta:     Bulk bias =       0.000000
siesta:   Exch.-corr. =   -3728.814386
siesta:  Ion-electron =  -62234.842964
siesta:       Ion-ion =   23002.613469
siesta:       Ekinion =       0.000000
siesta: D3 dispersion =       0.000000
siesta:         Total =   -9387.531425
siesta:         Fermi =      -3.656415

siesta: Atomic forces (eV/Ang):
siesta:      1    4.313835    2.667511   -4.214466
siesta:      2    0.336869    0.480637   -0.266516
siesta:      3    0.018095   -0.014587   -0.008935
siesta:      4   -0.050856   -0.057186    0.010902
siesta:      5    0.414439    5.498494   -1.957383
siesta:      6    0.047393    0.339717   -0.096075
siesta:      7   -0.025535   -0.005863   -0.001675
siesta:      8   -0.001035   -0.037909    0.003568
siesta:      9    0.330066    5.464146   -2.014075
siesta:     10    0.041075    0.334811   -0.080996
siesta:     11   -0.016454   -0.000241   -0.000742
siesta:     12    0.001539   -0.035531    0.002283
siesta:     13    0.325100    5.459155   -2.018907
siesta:     14    0.034437    0.334797   -0.083710
siesta:     15   -0.014683    0.000765    0.000234
siesta:     16    0.000789   -0.035107    0.002840
siesta:     17    0.320024    5.453986   -2.008945
siesta:     18   -0.033399    0.282836   -0.132613
siesta:     19   -0.011925    0.002807   -0.001187
siesta:     20    0.011397   -0.027259    0.004921
siesta:     21    0.061579    5.339890   -1.840467
siesta:     22   -5.065267    3.241796    2.082266
siesta:     23    0.031057    0.024879   -0.006997
siesta:     24   -0.009421   -0.015617   -0.008971
siesta:     25    5.087140   -2.936076   -2.122379
siesta:     26    0.283581    0.101895   -0.203951
siesta:     27    0.016064   -0.025346    0.008356
siesta:     28   -0.050815   -0.023150    0.007320
siesta:     29    0.019283    0.085625    0.095212
siesta:     30    0.021199    0.010680   -0.030914
siesta:     31   -0.011163   -0.016569   -0.001849
siesta:     32   -0.004789   -0.002728   -0.000522
siesta:     33   -0.065417    0.028556    0.040426
siesta:     34    0.013277    0.008926   -0.017886
siesta:     35    0.000226   -0.010102    0.000629
siesta:     36    0.000277   -0.000945   -0.001602
siesta:     37   -0.074691    0.027281    0.036439
siesta:     38    0.010244    0.006059   -0.021005
siesta:     39    0.000956   -0.009007    0.001322
siesta:     40   -0.000307   -0.000842   -0.000793
siesta:     41   -0.082117    0.026909    0.048482
siesta:     42   -0.064690   -0.050384   -0.072848
siesta:     43    0.004052   -0.007464    0.000221
siesta:     44    0.009832    0.007199    0.000964
siesta:     45   -0.343821   -0.065428    0.220216
siesta:     46   -5.122105    2.934398    2.149435
siesta:     47    0.050192    0.011891   -0.006962
siesta:     48   -0.014511    0.019988   -0.010903
siesta:     49    5.120959   -2.929348   -2.155870
siesta:     50    0.273988    0.088995   -0.194051
siesta:     51    0.016347   -0.022035    0.011726
siesta:     52   -0.049973   -0.021815    0.006210
siesta:     53    0.069119    0.060758    0.067547
siesta:     54    0.013331   -0.000342   -0.021691
siesta:     55   -0.011574   -0.008565   -0.000915
siesta:     56   -0.003441   -0.002042   -0.001059
siesta:     57   -0.007720    0.004370    0.014707
siesta:     58    0.004570    0.001582   -0.009359
siesta:     59   -0.000912   -0.001481    0.001528
siesta:     60   -0.000281    0.000334   -0.002392
[...]
siesta:    130   -0.325731   -5.457491    2.019380
siesta:    131   -0.002061    0.034021   -0.002805
siesta:    132    0.015036   -0.000408    0.000170
siesta:    133   -0.040115   -0.335253    0.081348
siesta:    134   -0.330016   -5.463891    2.013755
siesta:    135   -0.000476    0.034596   -0.002247
siesta:    136    0.015776   -0.000182    0.000734
siesta:    137   -0.047544   -0.339601    0.096449
siesta:    138   -0.414439   -5.498078    1.957120
siesta:    139    0.001057    0.036653   -0.004141
siesta:    140    0.026008    0.005592    0.001551
siesta:    141   -0.337686   -0.481088    0.266753
siesta:    142   -4.313691   -2.666645    4.214738
siesta:    143    0.049674    0.056012   -0.010884
siesta:    144   -0.018147    0.014963    0.009315
siesta: ----------------------------------------
siesta:    Tot   -0.002273    0.000918   -0.004902

siesta: Stress tensor (static) (eV/Ang**3):
siesta:    -0.005943    0.002365    0.002566
siesta:     0.002365   -0.009738    0.001150
siesta:     0.002566    0.001150   -0.001896

siesta: Cell volume =       8909.364514 Ang**3

siesta: Pressure (static):
siesta:                Solid            Molecule  Units
siesta:           0.00006381          0.00056519  Ry/Bohr**3
siesta:           0.00585916          0.05189320  eV/Ang**3
siesta:           9.38740716         83.14207698  kBar
(Free)E+ p_basis*V_orbitals  =       -9334.973585
(Free)Eharris+ p_basis*V_orbitals  =       -9334.973588

siesta: Electric dipole (a.u.)  =   -0.000000    0.000000   -0.000003
siesta: Electric dipole (Debye) =   -0.000000    0.000000   -0.000008

cite: Please see "nameofyoursystem.bib" for an exhaustive BiBTeX file.
cite: Please clearly indicate Siesta version in published work: 5.2.1
cite: This calculation has made use of the following articles
cite: which are encouraged to be cited in a published work.
        Primary SIESTA paper
          DOI: www.doi.org/10.1088/0953-8984/14/11/302

Routine            Calls   Time/call    Tot.time        %
siesta                 1    8316.981    8316.981   100.00
Setup                  1       1.111       1.111     0.01
bands                  3      57.493     172.480     2.07
KSV_init               1       0.000       0.000     0.00
IterGeom               1    8143.071    8143.071    97.91
geom_init              1      13.679      13.679     0.16
state_init             1       0.262       0.262     0.00
hsparse                1       0.032       0.032     0.00
overlap                1       0.178       0.178     0.00
Setup_H0               1       7.504       7.504     0.09
naefs                  2       0.001       0.002     0.00
dnaefs                 2       0.000       0.001     0.00
MolMec                 2       0.000       0.000     0.00
kinefsm                2       0.122       0.244     0.00
nlefsm                 2       0.517       1.033     0.01
DHSCF_Init             1       6.597       6.597     0.08
DHSCF1                 1       0.040       0.040     0.00
InitMesh               1       0.040       0.040     0.00
INITMESH               1       0.000       0.000     0.00
DHSCF2                 1       6.556       6.556     0.08
REMESH                 1       0.388       0.388     0.00
REORD                 45       0.013       0.599     0.01
PHION                  1       4.880       4.880     0.06
COMM_BSC              63       0.009       0.576     0.01
POISON                16       0.538       8.612     0.10
fft                   32       0.212       6.799     0.08
setup_H               14       5.940      83.155     1.00
DHSCF                 15       6.981     104.715     1.26
DHSCF3                15       5.984      89.758     1.08
rhoofd                15       1.941      29.119     0.35
XC                    15       1.872      28.073     0.34
GXC-CellXC            15       1.822      27.333     0.33
gridxc@cellXC         15       1.822      27.333     0.33
vmat                  15       1.425      21.381     0.26
IterSCF               13     623.636    8107.262    97.48
compute_dm            13     617.686    8029.918    96.55
diagon                13     617.685    8029.902    96.55
c-eigval             789       2.727    2151.275    25.87
c-buildHS            789       0.133     105.116     1.26
cdiag               1517       4.683    7104.735    85.42
cdiag1              1517       0.133     201.334     2.42
cdiag2              1517       0.500     758.427     9.12
cdiag3              1517       4.000    6068.121    72.96
c-eigvec             728       6.959    5066.209    60.91
cdiag4               728       0.062      45.158     0.54
c-buildD             728       1.351     983.328    11.82
MIXER                 12       0.004       0.043     0.00
PostSCF                1      22.129      22.129     0.27
FINAL_HF               1      22.129      22.129     0.27
DHSCF4                 1      14.957      14.957     0.18
dfscf                  1      13.974      13.974     0.17
overfsm                1       0.068       0.068     0.00
writeHSX               1       0.004       0.004     0.00
state_analysis         1       0.000       0.000     0.00
siesta_move            1       0.000       0.000     0.00
Analysis               1     172.783     172.783     2.08
optical                1       0.000       0.000     0.00

>> End of run:   5-JUN-2025  17:38:41
Job completed