 NOTE: Siesta V5 introduces some new defaults for basis-set generation
 NOTE: which might lead to slightly different numerical results.
 NOTE: Please see the manual for full details and compatibility measures.

reinit: Reading from file relaxation.fdf

reinit: -----------------------------------------------------------------------
reinit: System Name:
reinit: -----------------------------------------------------------------------
reinit: System Label: relaxation
reinit: -----------------------------------------------------------------------

initatom: Reading input for the pseudopotentials and atomic orbitals ----------
Species number:   1 Atomic number:   14 Label: Si
Species number:   2 Atomic number:    1 Label: H

Ground state valence configuration (from tables):   3s02  3p02  3d00  4f00
Ground state valence configuration (from tables):   1s01  2p00  3d00  4f00

---- Processing specs for species: Si
Reading pseudopotential information in PSML from:
  Si.psml
PSML file version: 1.1
GGA--PBE XC_GGA_X_PBE--XC_GGA_C_PBE pb
PSML uuid: 78f1be70-be41-11e7-6330-179677bb7285

---- Processing specs for species: H
Reading pseudopotential information in PSML from:
  H.psml
PSML file version: 1.1
GGA--PBE XC_GGA_X_PBE--XC_GGA_C_PBE pb
PSML uuid: f95fa9b0-be40-11e7-634a-9594ffff953f

---- Pseudopotential check for Si

Pseudized shells:
3s( 2.00) rc: 1.60
3p( 2.00) rc: 1.72
3d( 0.00) rc: 1.92
Valence configuration for ps generation: 3s:3p: Total charge:   4.000000

---- Pseudopotential check for H

Pseudized shells:
1s( 1.00) rc: 1.01
2p( 0.00) rc: 0.71
Valence configuration for ps generation: 1s: Total charge:   1.000000
For Si, standard SIESTA heuristics set lmxkb to 3
 (one more than the basis l, including polarization orbitals).
Use PS.lmax or PS.KBprojectors blocks to override.
For H, standard SIESTA heuristics set lmxkb to 2
 (one more than the basis l, including polarization orbitals).
Use PS.lmax or PS.KBprojectors blocks to override.
Si pseudopotential only contains V_ls up to l=2 -- lmxkb reset.
H pseudopotential only contains V_ls up to l=1 -- lmxkb reset.

<basis_specs>
Si                   Z=  14    Mass=  28.090        Charge= 0.17977+309
Lmxo=2 Lmxkb= 2    BasisType=split      Semic=F
L=0  Nsemic=0  Cnfigmx=3
          i=1  nzeta=2  polorb=0  (3s)
            splnorm:   0.15000
               vcte:    40.000
               rinn:  -0.90000
               qcoe:    0.0000
               qyuk:    0.0000
               qwid:   0.10000E-01
                rcs:    0.0000      0.0000
            lambdas:    1.0000      1.0000
L=1  Nsemic=0  Cnfigmx=3
          i=1  nzeta=2  polorb=1  (3p)  (to be polarized perturbatively)
            splnorm:   0.15000
               vcte:    40.000
               rinn:  -0.90000
               qcoe:    0.0000
               qyuk:    0.0000
               qwid:   0.10000E-01
                rcs:    0.0000      0.0000
            lambdas:    1.0000      1.0000
L=2  Nsemic=0  Cnfigmx=3
          i=1  nzeta=0  polorb=0  (3d)  (perturbative polarization orbital) (from 3p)
L=0  Nkbl=1  erefs: 0.17977+309
L=1  Nkbl=1  erefs: 0.17977+309
L=2  Nkbl=1  erefs: 0.17977+309
</basis_specs>

Using PAO.SplitTailNorm
atom: Called for Si                    (Z =  14)
Maximum radius (at nrval) set to   50.00000 8518

read_vps: Pseudopotential generation method:
read_vps: ONCVPSP-3.Hamann's oncvpsp
Valence charge in pseudo generation:    4.00000

read_vps: Pseudopotential includes a core correction:
read_vps: Pseudo-core for xc-correction

xc_check: Exchange-correlation functional:
xc_check: GGA Perdew, Burke & Ernzerhof 1996
Got Vlocal (oncv-fit) from psml data
Choosing vlocal chloc cutoff:  4.644478
qtot up to nchloc:    4.00055554
atom: Maximum radius for chlocal:    4.64448
atom: Maximum radius for r*vlocal+2*Zval:    4.64448
Reading KB projs from Si psml data
Using scalar-relativistic projectors in PSML file

PSML: Kleinman-Bylander projectors:
   l= 0   rc=  1.623671   Ekb= 10.337930
   l= 0   rc=  1.623671   Ekb=  1.659765
   l= 1   rc=  1.743879   Ekb=  5.142565
   l= 1   rc=  1.743879   Ekb=  1.156614
   l= 2   rc=  1.941952   Ekb= -4.854621
   l= 2   rc=  1.941952   Ekb= -0.976194

PSML: Total number of  Kleinman-Bylander projectors:  18
atom: -------------------------------------------------------------------------

atom: SANKEY-TYPE ORBITALS:
atom: Selected multiple-zeta basis: split

SPLIT: Orbitals with angular momentum L= 0

SPLIT: Basis orbitals for state 3s

SPLIT: PAO cut-off radius determined from an
SPLIT: energy shift=  0.022050 Ry
Split based on tail norm

   izeta = 1
                 lambda =    1.000000
                     rc =    4.897820
                 energy =   -0.769877
                kinetic =    0.629341
    potential(screened) =   -1.399219
       potential(ionic) =   -3.834541

   izeta = 2
                 rmatch =    3.647683
              splitnorm =    0.150000
                 energy =   -0.333761
                kinetic =    1.440104
    potential(screened) =   -1.773865
       potential(ionic) =   -4.344738

[...]

SPLIT: Basis orbitals for state 3p

[...]

POLgen: Perturbative polarization orbital with L=  2

POLgen: Polarization orbital for state 3p
Split based on tail norm

   izeta = 1
                     rc =    6.081107
                 energy =    0.393578
                kinetic =    1.684997
    potential(screened) =   -1.291419
       potential(ionic) =   -3.466595
atom: Total number of Sankey-type orbitals: 13

atm_pop: Valence configuration (for local Pseudopot. screening):
 3s( 2.00)
 3p( 2.00)
 3d( 0.00)
Vna: chval, zval:    4.00000   4.00000

Vna:  Cut-off radius for the neutral-atom potential:   6.081107
comcore: Pseudo-core radius Rcore=  2.875880

atom: _________________________________________________________________________

<basis_specs>
H                    Z=   1    Mass=  1.0080        Charge= 0.17977+309
Lmxo=1 Lmxkb= 1    BasisType=split      Semic=F
L=0  Nsemic=0  Cnfigmx=1
          i=1  nzeta=2  polorb=1  (1s)  (to be polarized perturbatively)
            splnorm:   0.15000
               vcte:    40.000
               rinn:  -0.90000
               qcoe:    0.0000
               qyuk:    0.0000
               qwid:   0.10000E-01
                rcs:    0.0000      0.0000
            lambdas:    1.0000      1.0000
L=1  Nsemic=0  Cnfigmx=2
          i=1  nzeta=0  polorb=0  (2p)  (perturbative polarization orbital) (from 1s)
L=0  Nkbl=1  erefs: 0.17977+309
L=1  Nkbl=1  erefs: 0.17977+309
</basis_specs>

Using PAO.SplitTailNorm
atom: Called for H                     (Z =   1)
Maximum radius (at nrval) set to   50.00000 8518

read_vps: Pseudopotential generation method:
read_vps: ONCVPSP-3.Hamann's oncvpsp
Valence charge in pseudo generation:    1.00000

xc_check: Exchange-correlation functional:
xc_check: GGA Perdew, Burke & Ernzerhof 1996
Got Vlocal (oncv-fit) from psml data
Choosing vlocal chloc cutoff:  1.926399
qtot up to nchloc:    0.99999831
atom: Maximum radius for chlocal:    1.92640
atom: Maximum radius for r*vlocal+2*Zval:    1.92640
Reading KB projs from H psml data
Using scalar-relativistic projectors in PSML file

PSML: Kleinman-Bylander projectors:
   l= 0   rc=  1.022342   Ekb= -3.402247
   l= 0   rc=  1.022342   Ekb= -1.068968
   l= 1   rc=  0.714575   Ekb= -1.006642

PSML: Total number of  Kleinman-Bylander projectors:   5
atom: -------------------------------------------------------------------------

atom: SANKEY-TYPE ORBITALS:
atom: Selected multiple-zeta basis: split

SPLIT: Orbitals with angular momentum L= 0

SPLIT: Basis orbitals for state 1s

SPLIT: PAO cut-off radius determined from an
SPLIT: energy shift=  0.022050 Ry
Split based on tail norm

   izeta = 1
                 lambda =    1.000000
                     rc =    4.612011
                 energy =   -0.453186
                kinetic =    1.021401
    potential(screened) =   -1.474588
       potential(ionic) =   -2.005546

   izeta = 2
                 rmatch =    3.250335
              splitnorm =    0.150000
                 energy =   -0.230614
                kinetic =    1.936796
    potential(screened) =   -2.167410
       potential(ionic) =   -2.722623

POLgen: Perturbative polarization orbital with L=  1

POLgen: Polarization orbital for state 1s
Split based on tail norm

   izeta = 1
                     rc =    4.612011
                 energy =    0.818341
                kinetic =    1.531928
    potential(screened) =   -0.713588
       potential(ionic) =   -1.217279
atom: Total number of Sankey-type orbitals:  5

atm_pop: Valence configuration (for local Pseudopot. screening):
 1s( 1.00)
 2p( 0.00)
Vna: chval, zval:    1.00000   1.00000

Vna:  Cut-off radius for the neutral-atom potential:   4.612011

atom: _________________________________________________________________________

prinput: Basis input

PAO.BasisType split

%block ChemicalSpeciesLabel
    1   14 Si                      # Species index, atomic number, species label
    2    1 H                       # Species index, atomic number, species label
%endblock ChemicalSpeciesLabel

%block PAO.Basis                 # Define Basis set
# WARNING: This information might be incomplete!
Si                    2                    # Species label, number of l-shells
 n=3   0   2                         # n, l, Nzeta
   4.898      3.648
   1.000      1.000
 n=3   1   2 P   1                   # n, l, Nzeta, Polarization, NzetaPol
   6.081      4.575
   1.000      1.000
H                     1                    # Species label, number of l-shells
 n=1   0   2 P   1                   # n, l, Nzeta, Polarization, NzetaPol
   4.612      3.250
   1.000      1.000
%endblock PAO.Basis

prinput: ----------------------------------------------------------------------

Dumping basis to NetCDF file Si.ion.nc
Dumping basis to NetCDF file H.ion.nc
coor:   Atomic-coordinates input format  =     Cartesian coordinates
coor:                                          (in Angstroms)

siesta: Atomic coordinates (Bohr) and species
siesta:      0.00000   0.00000  -0.42235  1        1
siesta:      3.64245   2.10297   0.42235  1        2
siesta:      0.00000   0.00000  -3.18135  2        3
siesta:      3.64245   2.10297   3.18135  2        4
siesta:      7.28489   0.00000  -0.42235  1        5
siesta:     10.92734   2.10297   0.42235  1        6
siesta:      7.28489   0.00000  -3.18135  2        7
siesta:     10.92734   2.10297   3.18135  2        8
siesta:     14.56979   0.00000  -0.42235  1        9
siesta:     18.21224   2.10297   0.42235  1       10
siesta:     14.56979   0.00000  -3.18135  2       11
siesta:     18.21224   2.10297   3.18135  2       12
siesta:     21.85468   0.00000  -0.42235  1       13
siesta:     25.49713   2.10297   0.42235  1       14
siesta:     21.85468   0.00000  -3.18135  2       15
siesta:     25.49713   2.10297   3.18135  2       16
siesta:     29.13958   0.00000  -0.42235  1       17
siesta:     32.78202   2.10297   0.42235  1       18
siesta:     29.13958   0.00000  -3.18135  2       19
siesta:     32.78202   2.10297   3.18135  2       20
siesta:     36.42447   0.00000  -0.42235  1       21
siesta:     40.06692   2.10297   0.42235  1       22
[...]
   scf:    2    -9388.845194    -9388.853625    -9388.853625  0.002471 -4.221964  0.046295
   scf:    3    -9388.861227    -9388.859032    -9388.859032  0.001173 -4.225847  0.022017
   scf:    4    -9388.859174    -9388.859105    -9388.859105  0.000148 -4.228869  0.018458
   scf:    5    -9388.859445    -9388.859284    -9388.859284  0.000349 -4.235677  0.006626
   scf:    6    -9388.859357    -9388.859323    -9388.859323  0.000065 -4.236657  0.002947
   scf:    7    -9388.859342    -9388.859334    -9388.859334  0.000050 -4.237261  0.000209

[...]

cgvc: Finished line minimization    1.  Mean atomic displacement =    0.0506

[...]

outcell: Cell vector modules (Ang)   :   23.142740   23.142740   22.262777
outcell: Cell angles (23,13,12) (deg):     90.0000     90.0000    120.0002
outcell: Cell volume (Ang**3)        :  10326.1563
<dSpData1D:S at geom step 10
  <sparsity:sparsity for geom step 10
    nrows_g=1296 nrows=1296 sparsity=.2545 nnzs=427464, refcount: 7>
  <dData1D:(new from dSpData1D) n=427464, refcount: 1>
refcount: 1>
new_DM -- step:    11
Re-using DM from previous geometries...
Number of DMs in history: 1
 DM extrapolation coefficients:
1   1.00000
New DM after history re-use:
<dSpData2D:SpM extrapolated using coords
  <sparsity:sparsity for geom step 10
    nrows_g=1296 nrows=1296 sparsity=.2545 nnzs=427464, refcount: 9>
  <dData2D:(temp array for extrapolation) n=427464 m=1, refcount: 1>
refcount: 1>
No. of atoms with KB's overlaping orbs in proc 0. Max # of overlaps:     220     117

[...]

outcell: Cell vector modules (Ang)   :   23.093189   23.093189   22.186625
outcell: Cell angles (23,13,12) (deg):     90.0000     90.0000    120.0001
outcell: Cell volume (Ang**3)        :  10246.8196
<dSpData1D:S at geom step 12
  <sparsity:sparsity for geom step 12
    nrows_g=1296 nrows=1296 sparsity=.2545 nnzs=427464, refcount: 7>
  <dData1D:(new from dSpData1D) n=427464, refcount: 1>
refcount: 1>
new_DM -- step:    13
Re-using DM from previous geometries...
Number of DMs in history: 1
 DM extrapolation coefficients:
1   1.00000
New DM after history re-use:
<dSpData2D:SpM extrapolated using coords
  <sparsity:sparsity for geom step 12
    nrows_g=1296 nrows=1296 sparsity=.2545 nnzs=427464, refcount: 9>
  <dData2D:(temp array for extrapolation) n=427464 m=1, refcount: 1>
refcount: 1>
Note: For starting DM, Qtot, Tr[D*S] =        360.00000000        356.36919434
No. of atoms with KB's overlaping orbs in proc 0. Max # of overlaps:     220     117

[...]

cgvc: Finished line minimization    5.  Mean atomic displacement =    0.0010

[...]

                        Begin CG opt. move =     16
 Kpoints in:           84 . Kpoints trimmed:           74

siesta: k-grid: Number of k-points = 74
siesta: k-points from Monkhorst-Pack grid
siesta: k-cutoff (effective) =    33.297 Ang
siesta: k-point supercell and displacements
siesta: k-grid:     7     0     0      0.000
siesta: k-grid:     0     7     0      0.000
siesta: k-grid:     0     0     3      0.000

superc: Internal auxiliary supercell:     3 x     3 x     1  =       9
superc: Number of atoms, orbitals, and projectors:   1296  11664  14904

[...]

outcell: Cell vector modules (Ang)   :   23.085306   23.085306   22.197861
outcell: Cell angles (23,13,12) (deg):     90.0003     89.9997    119.9996
outcell: Cell volume (Ang**3)        :  10245.0647
<dSpData1D:S at geom step 16
  <sparsity:sparsity for geom step 16
    nrows_g=1296 nrows=1296 sparsity=.2545 nnzs=427464, refcount: 7>
  <dData1D:(new from dSpData1D) n=427464, refcount: 1>
refcount: 1>
new_DM -- step:    17
Re-using DM from previous geometries...
Number of DMs in history: 1
 DM extrapolation coefficients:
1   1.00000
New DM after history re-use:
<dSpData2D:SpM extrapolated using coords
  <sparsity:sparsity for geom step 16
    nrows_g=1296 nrows=1296 sparsity=.2545 nnzs=427464, refcount: 9>
  <dData2D:(temp array for extrapolation) n=427464 m=1, refcount: 1>
refcount: 1>
No. of atoms with KB's overlaping orbs in proc 0. Max # of overlaps:     220     117

InitMesh: MESH = 216 x 216 x 240 = 11197440
InitMesh: Mesh cutoff (required, used) =   300.000   322.607 Ry
New grid distribution [1]: sub = 2

        iscf     Eharris(eV)        E_KS(eV)     FreeEng(eV)     dDmax    Ef(eV) dHmax(eV)
   scf:    1    -9398.411770    -9398.327394    -9398.327394  0.000304 -2.987511  0.004001
   scf:    2    -9398.327333    -9398.327393    -9398.327393  0.000115 -2.984177  0.004458
   scf:    3    -9398.327436    -9398.327422    -9398.327422  0.000065 -2.985942  0.000220

SCF Convergence by DM+H criterion
max |DM_out - DM_in|         :     0.0000650924
max |H_out - H_in|      (eV) :     0.0002201152
SCF cycle converged after 3 iterations

Using DM_out to compute the final energy and forces
No. of atoms with KB's overlaping orbs in proc 0. Max # of overlaps:     220     117

siesta: E_KS(eV) =            -9398.3274

siesta: Atomic forces (eV/Ang):
   Tot   -0.000000   -0.000000    0.000000
   Max    0.002754
   Res    0.001231    sqrt( Sum f_i^2 / 3N )
   Max    0.002754    constrained

Stress tensor Voigt[x,y,z,yz,xz,xy] (kbar):       -0.07       -0.07        0.01       -0.00        0.00        0.00
(Free)E + p*V (eV/cell)    -9398.0416
Target enthalpy (eV/cell)    -9398.3274

siesta: Stress tensor (static) (eV/Ang**3):
        -0.000046    0.000001    0.000001
         0.000001   -0.000044   -0.000000
         0.000001   -0.000000    0.000006

siesta: Pressure (static):          0.04469309  kBar

siesta: Stress tensor (total) (eV/Ang**3):
        -0.000046    0.000001    0.000001
         0.000001   -0.000044   -0.000000
         0.000001   -0.000000    0.000006

siesta: Pressure (total):          0.04469309  kBar

outcoor: Relaxed atomic coordinates (Ang):
   -0.00000583    0.00000336   -0.37004370   1       1  Si
    1.92378504    1.11069972    0.37004770   1       2  Si
   -0.00000519    0.00000300   -1.87710750   2       3  H
    1.92378441    1.11070009    1.87711150   2       4  H
    3.84754512    0.00001633   -0.37003172   1       5  Si
    5.77133599    1.11071268    0.37005968   1       6  Si
    3.84754575    0.00001596   -1.87709552   2       7  H
    5.77133536    1.11071305    1.87712348   2       8  H
    7.69509606    0.00002929   -0.37001973   1       9  Si
    9.61888694    1.11072565    0.37007167   1      10  Si
    7.69509670    0.00002892   -1.87708353   2      11  H
    9.61888630    1.11072601    1.87713547   2      12  H
   11.54264701    0.00004225   -0.37000775   1      13  Si
   13.46643788    1.11073861    0.37008365   1      14  Si
   11.54264764    0.00004188   -1.87707155   2      15  H
   13.46643725    1.11073897    1.87714745   2      16  H
   15.39019796    0.00005521   -0.36999576   1      17  Si
   17.31398883    1.11075157    0.37009564   1      18  Si
   15.39019859    0.00005485   -1.87705956   2      19  H
   17.31398820    1.11075193    1.87715944   2      20  H
   19.23774890    0.00006817   -0.36998378   1      21  Si
   21.16153978    1.11076453    0.37010762   1      22  Si
   19.23774954    0.00006781   -1.87704758   2      23  H
   21.16153914    1.11076489    1.87717142   2      24  H
   -1.92377008    3.33208671   -0.37005569   1      25  Si
    0.00002080    4.44278307    0.37003571   1      26  Si
   -1.92376944    3.33208635   -1.87711949   2      27  H
    0.00002016    4.44278344    1.87709951   2      28  H
    1.92378087    3.33209968   -0.37004371   1      29  Si
    3.84757174    4.44279604    0.37004770   1      30  Si
    1.92378150    3.33209931   -1.87710750   2      31  H
    3.84757111    4.44279640    1.87711150   2      32  H
    5.77133182    3.33211264   -0.37003172   1      33  Si
    7.69512269    4.44280900    0.37005968   1      34  Si
    5.77133245    3.33211227   -1.87709552   2      35  H
    7.69512206    4.44280937    1.87712348   2      36  H
    9.61888276    3.33212560   -0.37001973   1      37  Si
   11.54267364    4.44282196    0.37007167   1      38  Si
    9.61888340    3.33212523   -1.87708353   2      39  H
   11.54267300    4.44282233    1.87713547   2      40  H
   13.46643371    3.33213856   -0.37000775   1      41  Si
   15.39022458    4.44283492    0.37008365   1      42  Si
   13.46643434    3.33213819   -1.87707155   2      43  H
   15.39022395    4.44283529    1.87714745   2      44  H
   17.31398466    3.33215152   -0.36999576   1      45  Si
   19.23777553    4.44284788    0.37009564   1      46  Si
   17.31398529    3.33215115   -1.87705956   2      47  H
   19.23777490    4.44284825    1.87715944   2      48  H
   -3.84753433    6.66417006   -0.37006768   1      49  Si
   -1.92374345    7.77486642    0.37002373   1      50  Si
   -3.84753369    6.66416970   -1.87713148   2      51  H
   -1.92374409    7.77486679    1.87708752   2      52  H
    0.00001662    6.66418303   -0.37005569   1      53  Si
    1.92380749    7.77487938    0.37003571   1      54  Si
    0.00001725    6.66418266   -1.87711949   2      55  H
    1.92380686    7.77487975    1.87709951   2      56  H
    3.84756757    6.66419599   -0.37004371   1      57  Si
    5.77135844    7.77489234    0.37004770   1      58  Si
    3.84756820    6.66419562   -1.87710751   2      59  H
    5.77135781    7.77489271    1.87711149   2      60  H
[...]
    0.00006570   17.77114239    0.37001173   1     130  Si
   -1.92372454   16.66044567   -1.87714347   2     131  H
    0.00006506   17.77114276    1.87707553   2     132  H
    1.92382577   16.66045900   -0.37006768   1     133  Si
    3.84761664   17.77115535    0.37002372   1     134  Si
    1.92382640   16.66045863   -1.87713148   2     135  H
    3.84761601   17.77115572    1.87708752   2     136  H
    5.77137671   16.66047196   -0.37005570   1     137  Si
    7.69516759   17.77116832    0.37003570   1     138  Si
    5.77137735   16.66047159   -1.87711950   2     139  H
    7.69516695   17.77116868    1.87709950   2     140  H
    9.61892766   16.66048492   -0.37004371   1     141  Si
   11.54271853   17.77118128    0.37004769   1     142  Si
    9.61892830   16.66048455   -1.87710751   2     143  H
   11.54271790   17.77118164    1.87711149   2     144  H

outcell: Unit cell vectors (Ang):
       23.085306    0.000078    0.000072
      -11.542585   19.992500   -0.000072
        0.000062   -0.000036   22.197861

outcell: Cell vector modules (Ang)   :   23.085306   23.085306   22.197861
outcell: Cell angles (23,13,12) (deg):     90.0003     89.9997    119.9996
outcell: Cell volume (Ang**3)        :  10245.0647

coxmol: Writing XMOL coordinates into file relaxation.xyz

siesta: Program's energy decomposition (eV):
siesta: Ebs     =     -3261.066421
siesta: Eions   =     16191.100025
siesta: Ena     =      5341.542231
siesta: Ekin    =      4086.850634
siesta: Enl     =      1012.393870
siesta: Eso     =         0.000000
siesta: Edftu   =         0.000000
siesta: DEna    =        32.360965
siesta: DUscf   =        27.961166
siesta: DUext   =         0.000000
siesta: Ex      =     -3307.441012
siesta: Ec      =      -400.895250
siesta: Exc     =     -3708.336263
siesta: EbV     =         0.000000
siesta: eta*DQ  =         0.000000
siesta: Emadel  =         0.000000
siesta: Emeta   =         0.000000
siesta: Emolmec =         0.000000
siesta: Ekinion =         0.000000
siesta: Eharris =     -9398.327436
siesta: Etot    =     -9398.327422
siesta: FreeEng =     -9398.327422

siesta: Final energy (eV):
siesta:  Band Struct. =   -3261.066421
siesta:       Kinetic =    4086.850634
siesta:       Hartree =   32897.668061
siesta:         Edftu =       0.000000
siesta:       Eso     =       0.000000
siesta:    Ext. field =       0.000000
siesta:         Exch. =   -3307.441012
siesta:         Corr. =    -400.895250
siesta:     Bulk bias =       0.000000
siesta:   Exch.-corr. =   -3708.336263
siesta:  Ion-electron =  -69106.865701
siesta:       Ion-ion =   26432.355847
siesta:       Ekinion =       0.000000
siesta: D3 dispersion =       0.000000
siesta:         Total =   -9398.327422
siesta:         Fermi =      -2.985942

siesta: Stress tensor (static) (eV/Ang**3):
siesta:    -0.000046    0.000001    0.000001
siesta:     0.000001   -0.000044   -0.000000
siesta:     0.000001   -0.000000    0.000006

siesta: Constrained stress tensor (static) (eV/Ang**3):
siesta:    -0.000046    0.000001    0.000001
siesta:     0.000001   -0.000044   -0.000000
siesta:     0.000001   -0.000000    0.000006

siesta: Cell volume =      10245.064688 Ang**3

siesta: Pressure (static):
siesta:                Solid            Molecule  Units
siesta:           0.00000030          0.00000039  Ry/Bohr**3
siesta:           0.00002790          0.00003593  eV/Ang**3
siesta:           0.04469309          0.05755913  kBar
(Free)E+ p_basis*V_orbitals  =       -9345.769582
(Free)Eharris+ p_basis*V_orbitals  =       -9345.769596

siesta: Electric dipole (a.u.)  =    0.000000   -0.000000   -0.000000
siesta: Electric dipole (Debye) =    0.000000   -0.000000   -0.000000

cite: Please see "relaxation.bib" for an exhaustive BiBTeX file.
cite: Please clearly indicate Siesta version in published work: 5.2.1
cite: This calculation has made use of the following articles
cite: which are encouraged to be cited in a published work.
        Primary SIESTA paper
          DOI: www.doi.org/10.1088/0953-8984/14/11/302

Routine            Calls   Time/call    Tot.time        %
siesta                 1   85316.373   85316.373   100.00
Setup                  1       1.049       1.049     0.00
bands                  1       0.000       0.000     0.00
KSV_init               1       0.000       0.000     0.00
IterGeom              17    5018.545   85315.262   100.00
geom_init             17      12.665     215.305     0.25
state_init            17       0.134       2.285     0.00
hsparse               17       0.028       0.469     0.00
overlap               17       0.068       1.154     0.00
Setup_H0              17       6.662     113.254     0.13
naefs                 34       0.001       0.024     0.00
dnaefs                34       0.000       0.010     0.00
MolMec                34       0.000       0.000     0.00
kinefsm               34       0.061       2.084     0.00
nlefsm                34       0.200       6.815     0.01
DHSCF_Init            17       6.435     109.390     0.13
DHSCF1                17       0.040       0.673     0.00
InitMesh              17       0.040       0.673     0.00
INITMESH              17       0.000       0.000     0.00
DHSCF2                17       6.395     108.717     0.13
REMESH                17       0.389       6.611     0.01
REORD                525       0.014       7.287     0.01
PHION                 17       4.715      80.147     0.09
COMM_BSC             591       0.010       5.998     0.01
POISON               152       0.598      90.850     0.11
fft                  304       0.236      71.863     0.08
setup_H              118       5.833     688.253     0.81
DHSCF                135       7.450    1005.728     1.18
DHSCF3               135       5.830     787.087     0.92
rhoofd               135       1.802     243.264     0.29
XC                   135       1.884     254.337     0.30
GXC-CellXC           135       1.830     247.008     0.29
gridxc@cellXC        135       1.830     247.008     0.29
vmat                 135       1.318     177.955     0.21
IterSCF              101     839.359   84775.246    99.37
compute_dm           101     833.525   84186.065    98.68
diagon               101     833.524   84185.952    98.68
c-eigval            7474       2.834   21179.704    24.82
c-buildHS           7474       0.131     975.775     1.14
cdiag              14948       4.893   73133.212    85.72
cdiag1             14948       0.137    2047.707     2.40
cdiag2             14948       0.516    7715.074     9.04
cdiag3             14948       4.188   62597.316    73.37
c-eigvec            7474       7.091   53001.822    62.12
cdiag4              7474       0.063     472.627     0.55
c-buildD            7474       1.338    9997.047    11.72
MIXER                 84       0.003       0.265     0.00
PostSCF               17      19.099     324.681     0.38
FINAL_HF              17      19.099     324.681     0.38
DHSCF4                17      12.861     218.641     0.26
dfscf                 17      11.998     203.968     0.24
overfsm               17       0.059       1.002     0.00
writeHSX              17       0.005       0.078     0.00
state_analysis        17       0.000       0.007     0.00
siesta_move           17       0.001       0.014     0.00
Analysis               1       0.039       0.039     0.00
optical                1       0.000       0.000     0.00

>> End of run:   3-JUN-2025  17:41:00
Job completed